20	5
0	2	1	2
1	2	20	5
2	3	10	8	19
3	3	7	15	18
4	1	9
5	1	10
6	2	12	3
7	1	17
8	2	18	11
9	2	12	14
10	1	6
11	2	7	16
12	1	21
13	1	21
14	1	21
15	1	21
16	1	21
17	1	21
18	1	21
19	1	21
20	1	21
21	0
0	0	0	0	0	0	0
1	5	4	4	5	5	2
2	7	2	3	0	3	1
3	8	2	1	2	1	5
4	10	1	2	5	1	1
5	3	0	5	2	2	3
6	6	2	3	4	3	4
7	3	1	0	5	4	0
8	9	0	0	0	0	5
9	10	5	2	3	3	1
10	1	1	1	1	2	4
11	9	3	2	3	5	3
12	4	5	3	5	1	2
13	2	2	0	0	3	0
14	1	5	2	0	2	3
15	3	5	3	0	1	5
16	4	4	3	0	0	3
17	9	0	0	0	4	0
18	2	1	2	5	4	5
19	5	0	4	0	4	0
20	2	0	4	0	2	0
21	0	0	0	0	0	0
7	8	7	7	7
